result&benchmarks/Data/Ex1/verify/Output/Addition02_process_dc_iter1Output/Counterexample.3.smt2
(set-info :source |printed by MathSAT|)
(declare-fun |main::result@2| () (_ BitVec 32))
(declare-fun |main::local_18@2| () (_ BitVec 32))
(declare-fun |addition::m__param__@2| () (_ BitVec 32))
(declare-fun |addition::n__param__@2| () (_ BitVec 32))
(declare-fun |addition::m@2| () (_ BitVec 32))
(declare-fun |addition::n@2| () (_ BitVec 32))
(declare-fun |addition::iVar1@3| () (_ BitVec 32))
(declare-fun |addition::m__param__@3| () (_ BitVec 32))
(declare-fun |addition::n__param__@3| () (_ BitVec 32))
(declare-fun |addition::__retval__@2| () (_ BitVec 32))
(declare-fun |main::iVar1@5| () (_ BitVec 32))
(declare-fun |addition::iVar1@5| () (_ BitVec 32))
(declare-fun |addition::__retval__@3| () (_ BitVec 32))
(declare-fun |addition::m@3| () (_ BitVec 32))
(declare-fun |addition::n@3| () (_ BitVec 32))
(declare-fun |main::iVar1@6| () (_ BitVec 32))
(declare-fun |addition::iVar1@7| () (_ BitVec 32))
(assert (let ((.def_462 (= |addition::__retval__@3| |addition::iVar1@7|)))(let ((.def_460 (= |addition::__retval__@2| |addition::iVar1@7|)))(let ((.def_42 (= |main::local_18@2| |addition::n__param__@2|)))(let ((.def_40 (= |main::result@2| |addition::m__param__@2|)))(let ((.def_43 (and .def_40 .def_42)))(let ((.def_33 (bvslt (_ bv1073741823 32) |main::local_18@2|)))(let ((.def_36 (not .def_33)))(let ((.def_27 ((_ extract 31 31) |main::local_18@2|)))(let ((.def_28 (= .def_27 (_ bv1 1))))(let ((.def_31 (not .def_28)))(let ((.def_19 (bvslt (_ bv1073741823 32) |main::result@2|)))(let ((.def_22 (not .def_19)))(let ((.def_13 ((_ extract 31 31) |main::result@2|)))(let ((.def_14 (= .def_13 (_ bv1 1))))(let ((.def_17 (not .def_14)))(let ((.def_23 (and .def_17 .def_22)))(let ((.def_32 (and .def_23 .def_31)))(let ((.def_37 (and .def_32 .def_36)))(let ((.def_449 (and .def_37 .def_43)))(let ((.def_47 (= |addition::n__param__@2| |addition::n@2|)))(let ((.def_45 (= |addition::m__param__@2| |addition::m@2|)))(let ((.def_48 (and .def_45 .def_47)))(let ((.def_450 (and .def_48 .def_449)))(let ((.def_50 (= |addition::m@2| |addition::iVar1@3|)))(let ((.def_451 (and .def_50 .def_450)))(let ((.def_52 (= |addition::n@2| (_ bv0 32))))(let ((.def_53 (not .def_52)))(let ((.def_452 (and .def_53 .def_451)))(let ((.def_57 (bvslt |addition::n@2| (_ bv1 32))))(let ((.def_60 (not .def_57)))(let ((.def_453 (and .def_60 .def_452)))(let ((.def_68 (bvadd (_ bv4294967295 32) |addition::n@2|)))(let ((.def_70 (= .def_68 |addition::n__param__@3|)))(let ((.def_63 (bvadd (_ bv1 32) |addition::m@2|)))(let ((.def_65 (= .def_63 |addition::m__param__@3|)))(let ((.def_71 (and .def_65 .def_70)))(let ((.def_454 (and .def_71 .def_453)))(let ((.def_395 (= |addition::n__param__@3| |addition::n@3|)))(let ((.def_393 (= |addition::m__param__@3| |addition::m@3|)))(let ((.def_396 (and .def_393 .def_395)))(let ((.def_455 (and .def_396 .def_454)))(let ((.def_397 (= |addition::iVar1@5| |addition::m@3|)))(let ((.def_456 (and .def_397 .def_455)))(let ((.def_399 (= |addition::n@3| (_ bv0 32))))(let ((.def_457 (and .def_399 .def_456)))(let ((.def_340 (= |addition::__retval__@2| |addition::iVar1@5|)))(let ((.def_458 (and .def_340 .def_457)))(let ((.def_461 (and .def_458 .def_460)))(let ((.def_463 (and .def_461 .def_462)))(let ((.def_422 (= |main::iVar1@5| |addition::__retval__@3|)))(let ((.def_464 (and .def_422 .def_463)))(let ((.def_98 (bvneg |main::local_18@2|)))(let ((.def_99 (bvadd |main::result@2| .def_98)))(let ((.def_423 (= .def_99 |main::iVar1@5|)))(let ((.def_425 (not .def_423)))(let ((.def_465 (and .def_425 .def_464)))(let ((.def_427 (= |main::iVar1@6| (_ bv1048576 32))))(let ((.def_466 (and .def_427 .def_465))).def_466)))))))))))))))))))))))))))))))))))))))))))))))))))))))))))