result&benchmarks/Data/Ex1/verify/Output/Addition02_process_dc_iter1Output/Counterexample.3.txt
none:	N55 -{INIT GLOBAL VARS}-> N90
/usr/include/assert.h, lines 69-71:	N90 -{void __assert_fail(const char *__assertion, const char *__file, unsigned int __line, const char *__function);}-> N91
/usr/include/assert.h, lines 74-76:	N91 -{void __assert_perror_fail(int __errnum, const char *__file, unsigned int __line, const char *__function);}-> N92
/usr/include/assert.h, lines 81-82:	N92 -{void __assert(const char *__assertion, const char *__file, int __line);}-> N93
/usr/include/x86_64-linux-gnu/bits/types.h, line 31:	N93 -{typedef unsigned char __u_char;}-> N94
/usr/include/x86_64-linux-gnu/bits/types.h, line 32:	N94 -{typedef unsigned short int __u_short;}-> N95
/usr/include/x86_64-linux-gnu/bits/types.h, line 33:	N95 -{typedef unsigned int __u_int;}-> N96
/usr/include/x86_64-linux-gnu/bits/types.h, line 34:	N96 -{typedef unsigned long int __u_long;}-> N97
/usr/include/x86_64-linux-gnu/bits/types.h, line 37:	N97 -{typedef signed char __int8_t;}-> N98
/usr/include/x86_64-linux-gnu/bits/types.h, line 38:	N98 -{typedef unsigned char __uint8_t;}-> N99
/usr/include/x86_64-linux-gnu/bits/types.h, line 39:	N99 -{typedef signed short int __int16_t;}-> N100
/usr/include/x86_64-linux-gnu/bits/types.h, line 40:	N100 -{typedef unsigned short int __uint16_t;}-> N101
/usr/include/x86_64-linux-gnu/bits/types.h, line 41:	N101 -{typedef signed int __int32_t;}-> N102
/usr/include/x86_64-linux-gnu/bits/types.h, line 42:	N102 -{typedef unsigned int __uint32_t;}-> N103
/usr/include/x86_64-linux-gnu/bits/types.h, line 44:	N103 -{typedef signed long int __int64_t;}-> N104
/usr/include/x86_64-linux-gnu/bits/types.h, line 45:	N104 -{typedef unsigned long int __uint64_t;}-> N105
/usr/include/x86_64-linux-gnu/bits/types.h, line 52:	N105 -{typedef __int8_t __int_least8_t;}-> N106
/usr/include/x86_64-linux-gnu/bits/types.h, line 53:	N106 -{typedef __uint8_t __uint_least8_t;}-> N107
/usr/include/x86_64-linux-gnu/bits/types.h, line 54:	N107 -{typedef __int16_t __int_least16_t;}-> N108
/usr/include/x86_64-linux-gnu/bits/types.h, line 55:	N108 -{typedef __uint16_t __uint_least16_t;}-> N109
/usr/include/x86_64-linux-gnu/bits/types.h, line 56:	N109 -{typedef __int32_t __int_least32_t;}-> N110
/usr/include/x86_64-linux-gnu/bits/types.h, line 57:	N110 -{typedef __uint32_t __uint_least32_t;}-> N111
/usr/include/x86_64-linux-gnu/bits/types.h, line 58:	N111 -{typedef __int64_t __int_least64_t;}-> N112
/usr/include/x86_64-linux-gnu/bits/types.h, line 59:	N112 -{typedef __uint64_t __uint_least64_t;}-> N113
/usr/include/x86_64-linux-gnu/bits/types.h, line 63:	N113 -{typedef long int __quad_t;}-> N114
/usr/include/x86_64-linux-gnu/bits/types.h, line 64:	N114 -{typedef unsigned long int __u_quad_t;}-> N115
/usr/include/x86_64-linux-gnu/bits/types.h, line 72:	N115 -{typedef long int __intmax_t;}-> N116
/usr/include/x86_64-linux-gnu/bits/types.h, line 73:	N116 -{typedef unsigned long int __uintmax_t;}-> N117
/usr/include/x86_64-linux-gnu/bits/types.h, line 145:	N117 -{typedef unsigned long int __dev_t;}-> N118
/usr/include/x86_64-linux-gnu/bits/types.h, line 146:	N118 -{typedef unsigned int __uid_t;}-> N119
/usr/include/x86_64-linux-gnu/bits/types.h, line 147:	N119 -{typedef unsigned int __gid_t;}-> N120
/usr/include/x86_64-linux-gnu/bits/types.h, line 148:	N120 -{typedef unsigned long int __ino_t;}-> N121
/usr/include/x86_64-linux-gnu/bits/types.h, line 149:	N121 -{typedef unsigned long int __ino64_t;}-> N122
/usr/include/x86_64-linux-gnu/bits/types.h, line 150:	N122 -{typedef unsigned int __mode_t;}-> N123
/usr/include/x86_64-linux-gnu/bits/types.h, line 151:	N123 -{typedef unsigned long int __nlink_t;}-> N124
/usr/include/x86_64-linux-gnu/bits/types.h, line 152:	N124 -{typedef long int __off_t;}-> N125
/usr/include/x86_64-linux-gnu/bits/types.h, line 153:	N125 -{typedef long int __off64_t;}-> N126
/usr/include/x86_64-linux-gnu/bits/types.h, line 154:	N126 -{typedef int __pid_t;}-> N127
/usr/include/x86_64-linux-gnu/bits/types.h, line 155:	N127 -{struct __anon_type___fsid_t {   int __val[2]; } ;}-> N128
/usr/include/x86_64-linux-gnu/bits/types.h, line 155:	N128 -{typedef struct __anon_type___fsid_t __fsid_t;}-> N129
/usr/include/x86_64-linux-gnu/bits/types.h, line 156:	N129 -{typedef long int __clock_t;}-> N130
/usr/include/x86_64-linux-gnu/bits/types.h, line 157:	N130 -{typedef unsigned long int __rlim_t;}-> N131
/usr/include/x86_64-linux-gnu/bits/types.h, line 158:	N131 -{typedef unsigned long int __rlim64_t;}-> N132
/usr/include/x86_64-linux-gnu/bits/types.h, line 159:	N132 -{typedef unsigned int __id_t;}-> N133
/usr/include/x86_64-linux-gnu/bits/types.h, line 160:	N133 -{typedef long int __time_t;}-> N134
/usr/include/x86_64-linux-gnu/bits/types.h, line 161:	N134 -{typedef unsigned int __useconds_t;}-> N135
/usr/include/x86_64-linux-gnu/bits/types.h, line 162:	N135 -{typedef long int __suseconds_t;}-> N136
/usr/include/x86_64-linux-gnu/bits/types.h, line 163:	N136 -{typedef long int __suseconds64_t;}-> N137
/usr/include/x86_64-linux-gnu/bits/types.h, line 165:	N137 -{typedef int __daddr_t;}-> N138
/usr/include/x86_64-linux-gnu/bits/types.h, line 166:	N138 -{typedef int __key_t;}-> N139
/usr/include/x86_64-linux-gnu/bits/types.h, line 169:	N139 -{typedef int __clockid_t;}-> N140
/usr/include/x86_64-linux-gnu/bits/types.h, line 172:	N140 -{typedef void *__timer_t;}-> N141
/usr/include/x86_64-linux-gnu/bits/types.h, line 175:	N141 -{typedef long int __blksize_t;}-> N142
/usr/include/x86_64-linux-gnu/bits/types.h, line 180:	N142 -{typedef long int __blkcnt_t;}-> N143
/usr/include/x86_64-linux-gnu/bits/types.h, line 181:	N143 -{typedef long int __blkcnt64_t;}-> N144
/usr/include/x86_64-linux-gnu/bits/types.h, line 184:	N144 -{typedef unsigned long int __fsblkcnt_t;}-> N145
/usr/include/x86_64-linux-gnu/bits/types.h, line 185:	N145 -{typedef unsigned long int __fsblkcnt64_t;}-> N146
/usr/include/x86_64-linux-gnu/bits/types.h, line 188:	N146 -{typedef unsigned long int __fsfilcnt_t;}-> N147
/usr/include/x86_64-linux-gnu/bits/types.h, line 189:	N147 -{typedef unsigned long int __fsfilcnt64_t;}-> N148
/usr/include/x86_64-linux-gnu/bits/types.h, line 192:	N148 -{typedef long int __fsword_t;}-> N149
/usr/include/x86_64-linux-gnu/bits/types.h, line 194:	N149 -{typedef long int __ssize_t;}-> N150
/usr/include/x86_64-linux-gnu/bits/types.h, line 197:	N150 -{typedef long int __syscall_slong_t;}-> N151
/usr/include/x86_64-linux-gnu/bits/types.h, line 199:	N151 -{typedef unsigned long int __syscall_ulong_t;}-> N152
/usr/include/x86_64-linux-gnu/bits/types.h, line 203:	N152 -{typedef __off64_t __loff_t;}-> N153
/usr/include/x86_64-linux-gnu/bits/types.h, line 204:	N153 -{typedef char *__caddr_t;}-> N154
/usr/include/x86_64-linux-gnu/bits/types.h, line 207:	N154 -{typedef long int __intptr_t;}-> N155
/usr/include/x86_64-linux-gnu/bits/types.h, line 210:	N155 -{typedef unsigned int __socklen_t;}-> N156
/usr/include/x86_64-linux-gnu/bits/types.h, line 215:	N156 -{typedef int __sig_atomic_t;}-> N157
/usr/include/x86_64-linux-gnu/bits/stdint-intn.h, line 24:	N157 -{typedef __int8_t int8_t;}-> N158
/usr/include/x86_64-linux-gnu/bits/stdint-intn.h, line 25:	N158 -{typedef __int16_t int16_t;}-> N159
/usr/include/x86_64-linux-gnu/bits/stdint-intn.h, line 26:	N159 -{typedef __int32_t int32_t;}-> N160
/usr/include/x86_64-linux-gnu/bits/stdint-intn.h, line 27:	N160 -{typedef __int64_t int64_t;}-> N161
/usr/include/x86_64-linux-gnu/bits/stdint-uintn.h, line 24:	N161 -{typedef __uint8_t uint8_t;}-> N162
/usr/include/x86_64-linux-gnu/bits/stdint-uintn.h, line 25:	N162 -{typedef __uint16_t uint16_t;}-> N163
/usr/include/x86_64-linux-gnu/bits/stdint-uintn.h, line 26:	N163 -{typedef __uint32_t uint32_t;}-> N164
/usr/include/x86_64-linux-gnu/bits/stdint-uintn.h, line 27:	N164 -{typedef __uint64_t uint64_t;}-> N165
/usr/include/stdint.h, line 43:	N165 -{typedef __int_least8_t int_least8_t;}-> N166
/usr/include/stdint.h, line 44:	N166 -{typedef __int_least16_t int_least16_t;}-> N167
/usr/include/stdint.h, line 45:	N167 -{typedef __int_least32_t int_least32_t;}-> N168
/usr/include/stdint.h, line 46:	N168 -{typedef __int_least64_t int_least64_t;}-> N169
/usr/include/stdint.h, line 49:	N169 -{typedef __uint_least8_t uint_least8_t;}-> N170
/usr/include/stdint.h, line 50:	N170 -{typedef __uint_least16_t uint_least16_t;}-> N171
/usr/include/stdint.h, line 51:	N171 -{typedef __uint_least32_t uint_least32_t;}-> N172
/usr/include/stdint.h, line 52:	N172 -{typedef __uint_least64_t uint_least64_t;}-> N173
/usr/include/stdint.h, line 58:	N173 -{typedef signed char int_fast8_t;}-> N174
/usr/include/stdint.h, line 60:	N174 -{typedef long int int_fast16_t;}-> N175
/usr/include/stdint.h, line 61:	N175 -{typedef long int int_fast32_t;}-> N176
/usr/include/stdint.h, line 62:	N176 -{typedef long int int_fast64_t;}-> N177
/usr/include/stdint.h, line 71:	N177 -{typedef unsigned char uint_fast8_t;}-> N178
/usr/include/stdint.h, line 73:	N178 -{typedef unsigned long int uint_fast16_t;}-> N179
/usr/include/stdint.h, line 74:	N179 -{typedef unsigned long int uint_fast32_t;}-> N180
/usr/include/stdint.h, line 75:	N180 -{typedef unsigned long int uint_fast64_t;}-> N181
/usr/include/stdint.h, line 87:	N181 -{typedef long int intptr_t;}-> N182
/usr/include/stdint.h, line 90:	N182 -{typedef unsigned long int uintptr_t;}-> N183
/usr/include/stdint.h, line 101:	N183 -{typedef __intmax_t intmax_t;}-> N184
/usr/include/stdint.h, line 102:	N184 -{typedef __uintmax_t uintmax_t;}-> N185
/usr/lib/gcc/x86_64-linux-gnu/11/include/stddef.h, line 209:	N185 -{typedef unsigned long int size_t;}-> N186
/usr/lib/gcc/x86_64-linux-gnu/11/include/stddef.h, line 321:	N186 -{typedef int wchar_t;}-> N187
/usr/include/stdlib.h, lines 59-63:	N187 -{struct __anon_type_div_t {   int quot;   int rem; } ;}-> N188
/usr/include/stdlib.h, lines 59-63:	N188 -{typedef struct __anon_type_div_t div_t;}-> N189
/usr/include/stdlib.h, lines 67-71:	N189 -{struct __anon_type_ldiv_t {   long int quot;   long int rem; } ;}-> N190
/usr/include/stdlib.h, lines 67-71:	N190 -{typedef struct __anon_type_ldiv_t ldiv_t;}-> N191
/usr/include/stdlib.h, lines 77-81:	N191 -{struct __anon_type_lldiv_t {   long long int quot;   long long int rem; } ;}-> N192
/usr/include/stdlib.h, lines 77-81:	N192 -{typedef struct __anon_type_lldiv_t lldiv_t;}-> N193
/usr/include/stdlib.h, line 98:	N193 -{size_t __ctype_get_mb_cur_max();}-> N194
/usr/include/stdlib.h, lines 102-103:	N194 -{double atof(const char *__nptr);}-> N195
/usr/include/stdlib.h, lines 105-106:	N195 -{int atoi(const char *__nptr);}-> N196
/usr/include/stdlib.h, lines 108-109:	N196 -{long int atol(const char *__nptr);}-> N197
/usr/include/stdlib.h, lines 113-114:	N197 -{long long int atoll(const char *__nptr);}-> N198
/usr/include/stdlib.h, lines 118-120:	N198 -{double strtod(const char *__nptr, char **__endptr);}-> N199
/usr/include/stdlib.h, lines 124-125:	N199 -{float strtof(const char *__nptr, char **__endptr);}-> N200
/usr/include/stdlib.h, lines 127-129:	N200 -{long double strtold(const char *__nptr, char **__endptr);}-> N201
/usr/include/stdlib.h, lines 177-179:	N201 -{long int strtol(const char *__nptr, char **__endptr, int __base);}-> N202
/usr/include/stdlib.h, lines 181-183:	N202 -{unsigned long int strtoul(const char *__nptr, char **__endptr, int __base);}-> N203
/usr/include/stdlib.h, lines 188-190:	N203 -{long long int strtoq(const char *__nptr, char **__endptr, int __base);}-> N204
/usr/include/stdlib.h, lines 193-195:	N204 -{unsigned long long int strtouq(const char *__nptr, char **__endptr, int __base);}-> N205
/usr/include/stdlib.h, lines 201-203:	N205 -{long long int strtoll(const char *__nptr, char **__endptr, int __base);}-> N206
/usr/include/stdlib.h, lines 206-208:	N206 -{unsigned long long int strtoull(const char *__nptr, char **__endptr, int __base);}-> N207
/usr/include/stdlib.h, line 386:	N207 -{char *l64a(long int __n);}-> N208
/usr/include/stdlib.h, lines 389-390:	N208 -{long int a64l(const char *__s);}-> N209
/usr/include/x86_64-linux-gnu/sys/types.h, line 33:	N209 -{typedef __u_char u_char;}-> N210
/usr/include/x86_64-linux-gnu/sys/types.h, line 34:	N210 -{typedef __u_short u_short;}-> N211
/usr/include/x86_64-linux-gnu/sys/types.h, line 35:	N211 -{typedef __u_int u_int;}-> N212
/usr/include/x86_64-linux-gnu/sys/types.h, line 36:	N212 -{typedef __u_long u_long;}-> N213
/usr/include/x86_64-linux-gnu/sys/types.h, line 37:	N213 -{typedef __quad_t quad_t;}-> N214
/usr/include/x86_64-linux-gnu/sys/types.h, line 38:	N214 -{typedef __u_quad_t u_quad_t;}-> N215
/usr/include/x86_64-linux-gnu/sys/types.h, line 39:	N215 -{typedef __fsid_t fsid_t;}-> N216
/usr/include/x86_64-linux-gnu/sys/types.h, line 42:	N216 -{typedef __loff_t loff_t;}-> N217
/usr/include/x86_64-linux-gnu/sys/types.h, line 47:	N217 -{typedef __ino_t ino_t;}-> N218
/usr/include/x86_64-linux-gnu/sys/types.h, line 59:	N218 -{typedef __dev_t dev_t;}-> N219
/usr/include/x86_64-linux-gnu/sys/types.h, line 64:	N219 -{typedef __gid_t gid_t;}-> N220
/usr/include/x86_64-linux-gnu/sys/types.h, line 69:	N220 -{typedef __mode_t mode_t;}-> N221
/usr/include/x86_64-linux-gnu/sys/types.h, line 74:	N221 -{typedef __nlink_t nlink_t;}-> N222
/usr/include/x86_64-linux-gnu/sys/types.h, line 79:	N222 -{typedef __uid_t uid_t;}-> N223
/usr/include/x86_64-linux-gnu/sys/types.h, line 85:	N223 -{typedef __off_t off_t;}-> N224
/usr/include/x86_64-linux-gnu/sys/types.h, line 97:	N224 -{typedef __pid_t pid_t;}-> N225
/usr/include/x86_64-linux-gnu/sys/types.h, line 103:	N225 -{typedef __id_t id_t;}-> N226
/usr/include/x86_64-linux-gnu/sys/types.h, line 108:	N226 -{typedef __ssize_t ssize_t;}-> N227
/usr/include/x86_64-linux-gnu/sys/types.h, line 114:	N227 -{typedef __daddr_t daddr_t;}-> N228
/usr/include/x86_64-linux-gnu/sys/types.h, line 115:	N228 -{typedef __caddr_t caddr_t;}-> N229
/usr/include/x86_64-linux-gnu/sys/types.h, line 121:	N229 -{typedef __key_t key_t;}-> N230
/usr/include/x86_64-linux-gnu/bits/types/clock_t.h, line 7:	N230 -{typedef __clock_t clock_t;}-> N231
/usr/include/x86_64-linux-gnu/bits/types/clockid_t.h, line 7:	N231 -{typedef __clockid_t clockid_t;}-> N232
/usr/include/x86_64-linux-gnu/bits/types/time_t.h, line 10:	N232 -{typedef __time_t time_t;}-> N233
/usr/include/x86_64-linux-gnu/bits/types/timer_t.h, line 7:	N233 -{typedef __timer_t timer_t;}-> N234
/usr/include/x86_64-linux-gnu/sys/types.h, line 148:	N234 -{typedef unsigned long int ulong;}-> N235
/usr/include/x86_64-linux-gnu/sys/types.h, line 149:	N235 -{typedef unsigned short int ushort;}-> N236
/usr/include/x86_64-linux-gnu/sys/types.h, line 150:	N236 -{typedef unsigned int uint;}-> N237
/usr/include/x86_64-linux-gnu/sys/types.h, line 158:	N237 -{typedef __uint8_t u_int8_t;}-> N238
/usr/include/x86_64-linux-gnu/sys/types.h, line 159:	N238 -{typedef __uint16_t u_int16_t;}-> N239
/usr/include/x86_64-linux-gnu/sys/types.h, line 160:	N239 -{typedef __uint32_t u_int32_t;}-> N240
/usr/include/x86_64-linux-gnu/sys/types.h, line 161:	N240 -{typedef __uint64_t u_int64_t;}-> N241
/usr/include/x86_64-linux-gnu/sys/types.h, line 164:	N241 -{typedef signed int register_t;}-> N242
/usr/include/x86_64-linux-gnu/bits/byteswap.h, lines 33-41:	N242 -{__uint16_t __bswap_16(__uint16_t __bsx);}-> N243
/usr/include/x86_64-linux-gnu/bits/byteswap.h, lines 48-56:	N243 -{__uint32_t __bswap_32(__uint32_t __bsx);}-> N244
/usr/include/x86_64-linux-gnu/bits/byteswap.h, lines 69-77:	N244 -{__uint64_t __bswap_64(__uint64_t __bsx);}-> N245
/usr/include/x86_64-linux-gnu/bits/uintn-identity.h, lines 32-36:	N245 -{__uint16_t __uint16_identity(__uint16_t __x);}-> N246
/usr/include/x86_64-linux-gnu/bits/uintn-identity.h, lines 38-42:	N246 -{__uint32_t __uint32_identity(__uint32_t __x);}-> N247
/usr/include/x86_64-linux-gnu/bits/uintn-identity.h, lines 44-48:	N247 -{__uint64_t __uint64_identity(__uint64_t __x);}-> N248
/usr/include/x86_64-linux-gnu/bits/types/__sigset_t.h, lines 5-8:	N248 -{struct __anon_type___sigset_t {   unsigned long int __val[32UL]; } ;}-> N249
/usr/include/x86_64-linux-gnu/bits/types/__sigset_t.h, lines 5-8:	N249 -{typedef struct __anon_type___sigset_t __sigset_t;}-> N250
/usr/include/x86_64-linux-gnu/bits/types/sigset_t.h, line 7:	N250 -{typedef __sigset_t sigset_t;}-> N251
/usr/include/x86_64-linux-gnu/bits/types/struct_timeval.h, lines 8-17:	N251 -{struct timeval {   __time_t tv_sec;   __suseconds_t tv_usec; } ;}-> N252
/usr/include/x86_64-linux-gnu/bits/types/struct_timespec.h, lines 11-31:	N252 -{struct timespec {   __time_t tv_sec;   __syscall_slong_t tv_nsec; } ;}-> N253
/usr/include/x86_64-linux-gnu/sys/select.h, line 43:	N253 -{typedef __suseconds_t suseconds_t;}-> N254
/usr/include/x86_64-linux-gnu/sys/select.h, line 49:	N254 -{typedef long int __fd_mask;}-> N255
/usr/include/x86_64-linux-gnu/sys/select.h, lines 59-70:	N255 -{struct __anon_type_fd_set {   __fd_mask __fds_bits[32]; } ;}-> N256
/usr/include/x86_64-linux-gnu/sys/select.h, lines 59-70:	N256 -{typedef struct __anon_type_fd_set fd_set;}-> N257
/usr/include/x86_64-linux-gnu/sys/select.h, line 77:	N257 -{typedef __fd_mask fd_mask;}-> N258
/usr/include/x86_64-linux-gnu/sys/select.h, lines 102-105:	N258 -{int select(int __nfds, fd_set *__readfds, fd_set *__writefds, fd_set *__exceptfds, struct timeval *__timeout);}-> N259
/usr/include/x86_64-linux-gnu/sys/select.h, lines 127-131:	N259 -{int pselect(int __nfds, fd_set *__readfds, fd_set *__writefds, fd_set *__exceptfds, const struct timespec *__timeout, const __sigset_t *__sigmask);}-> N260
/usr/include/x86_64-linux-gnu/sys/types.h, line 185:	N260 -{typedef __blksize_t blksize_t;}-> N261
/usr/include/x86_64-linux-gnu/sys/types.h, line 192:	N261 -{typedef __blkcnt_t blkcnt_t;}-> N262
/usr/include/x86_64-linux-gnu/sys/types.h, line 196:	N262 -{typedef __fsblkcnt_t fsblkcnt_t;}-> N263
/usr/include/x86_64-linux-gnu/sys/types.h, line 200:	N263 -{typedef __fsfilcnt_t fsfilcnt_t;}-> N264
/usr/include/x86_64-linux-gnu/bits/atomic_wide_counter.h, lines 28-32:	N264 -{struct __anon_type_0 {   unsigned int __low;   unsigned int __high; } ;}-> N265
/usr/include/x86_64-linux-gnu/bits/atomic_wide_counter.h, lines 25-33:	N265 -{union __anon_type___atomic_wide_counter {   unsigned long long int __value64;   struct __anon_type_0 __value32; } ;}-> N266
/usr/include/x86_64-linux-gnu/bits/atomic_wide_counter.h, lines 25-33:	N266 -{typedef union __anon_type___atomic_wide_counter __atomic_wide_counter;}-> N267
/usr/include/x86_64-linux-gnu/bits/thread-shared-types.h, lines 51-55:	N267 -{struct __pthread_internal_list {   struct __pthread_internal_list *__prev;   struct __pthread_internal_list *__next; } ;}-> N268
/usr/include/x86_64-linux-gnu/bits/thread-shared-types.h, lines 51-55:	N268 -{typedef struct __pthread_internal_list __pthread_list_t;}-> N269
/usr/include/x86_64-linux-gnu/bits/thread-shared-types.h, lines 57-60:	N269 -{struct __pthread_internal_slist {   struct __pthread_internal_slist *__next; } ;}-> N270
/usr/include/x86_64-linux-gnu/bits/thread-shared-types.h, lines 57-60:	N270 -{typedef struct __pthread_internal_slist __pthread_slist_t;}-> N271
/usr/include/x86_64-linux-gnu/bits/struct_mutex.h, lines 22-53:	N271 -{struct __pthread_mutex_s {   int __lock;   unsigned int __count;   int __owner;   unsigned int __nusers;   int __kind;   short __spins;   short __elision;   __pthread_list_t __list; } ;}-> N272
/usr/include/x86_64-linux-gnu/bits/struct_rwlock.h, lines 23-55:	N272 -{struct __pthread_rwlock_arch_t {   unsigned int __readers;   unsigned int __writers;   unsigned int __wrphase_futex;   unsigned int __writers_futex;   unsigned int __pad3;   unsigned int __pad4;   int __cur_writer;   int __shared;   signed char __rwelision;   unsigned char __pad1[7];   unsigned long int __pad2;   unsigned int __flags; } ;}-> N273
/usr/include/x86_64-linux-gnu/bits/thread-shared-types.h, lines 94-103:	N273 -{struct __pthread_cond_s {   __atomic_wide_counter __wseq;   __atomic_wide_counter __g1_start;   unsigned int __g_refs[2];   unsigned int __g_size[2];   unsigned int __g1_orig_size;   unsigned int __wrefs;   unsigned int __g_signals[2]; } ;}-> N274
/usr/include/x86_64-linux-gnu/bits/thread-shared-types.h, line 105:	N274 -{typedef unsigned int __tss_t;}-> N275
/usr/include/x86_64-linux-gnu/bits/thread-shared-types.h, line 106:	N275 -{typedef unsigned long int __thrd_t;}-> N276
/usr/include/x86_64-linux-gnu/bits/thread-shared-types.h, lines 108-111:	N276 -{struct __anon_type___once_flag {   int __data; } ;}-> N277
/usr/include/x86_64-linux-gnu/bits/thread-shared-types.h, lines 108-111:	N277 -{typedef struct __anon_type___once_flag __once_flag;}-> N278
/usr/include/x86_64-linux-gnu/bits/pthreadtypes.h, line 27:	N278 -{typedef unsigned long int pthread_t;}-> N279
/usr/include/x86_64-linux-gnu/bits/pthreadtypes.h, lines 32-36:	N279 -{union __anon_type_pthread_mutexattr_t {   char __size[4];   int __align; } ;}-> N280
/usr/include/x86_64-linux-gnu/bits/pthreadtypes.h, lines 32-36:	N280 -{typedef union __anon_type_pthread_mutexattr_t pthread_mutexattr_t;}-> N281
/usr/include/x86_64-linux-gnu/bits/pthreadtypes.h, lines 41-45:	N281 -{union __anon_type_pthread_condattr_t {   char __size[4];   int __align; } ;}-> N282
/usr/include/x86_64-linux-gnu/bits/pthreadtypes.h, lines 41-45:	N282 -{typedef union __anon_type_pthread_mutexattr_t pthread_condattr_t;}-> N283
/usr/include/x86_64-linux-gnu/bits/pthreadtypes.h, line 49:	N283 -{typedef unsigned int pthread_key_t;}-> N284
/usr/include/x86_64-linux-gnu/bits/pthreadtypes.h, line 53:	N284 -{typedef int pthread_once_t;}-> N285
/usr/include/x86_64-linux-gnu/bits/pthreadtypes.h, lines 56-60:	N285 -{union pthread_attr_t {   char __size[56];   long int __align; } ;}-> N286
/usr/include/x86_64-linux-gnu/bits/pthreadtypes.h, line 62:	N286 -{typedef union pthread_attr_t pthread_attr_t;}-> N287
/usr/include/x86_64-linux-gnu/bits/pthreadtypes.h, lines 67-72:	N287 -{union __anon_type_pthread_mutex_t {   struct __pthread_mutex_s __data;   char __size[40];   long int __align; } ;}-> N288
/usr/include/x86_64-linux-gnu/bits/pthreadtypes.h, lines 67-72:	N288 -{typedef union __anon_type_pthread_mutex_t pthread_mutex_t;}-> N289
/usr/include/x86_64-linux-gnu/bits/pthreadtypes.h, lines 75-80:	N289 -{union __anon_type_pthread_cond_t {   struct __pthread_cond_s __data;   char __size[48];   long long int __align; } ;}-> N290
/usr/include/x86_64-linux-gnu/bits/pthreadtypes.h, lines 75-80:	N290 -{typedef union __anon_type_pthread_cond_t pthread_cond_t;}-> N291
/usr/include/x86_64-linux-gnu/bits/pthreadtypes.h, lines 86-91:	N291 -{union __anon_type_pthread_rwlock_t {   struct __pthread_rwlock_arch_t __data;   char __size[56];   long int __align; } ;}-> N292
/usr/include/x86_64-linux-gnu/bits/pthreadtypes.h, lines 86-91:	N292 -{typedef union __anon_type_pthread_rwlock_t pthread_rwlock_t;}-> N293
/usr/include/x86_64-linux-gnu/bits/pthreadtypes.h, lines 93-97:	N293 -{union __anon_type_pthread_rwlockattr_t {   char __size[8];   long int __align; } ;}-> N294
/usr/include/x86_64-linux-gnu/bits/pthreadtypes.h, lines 93-97:	N294 -{typedef union __anon_type_pthread_rwlockattr_t pthread_rwlockattr_t;}-> N295
/usr/include/x86_64-linux-gnu/bits/pthreadtypes.h, line 103:	N295 -{typedef volatile int pthread_spinlock_t;}-> N296
/usr/include/x86_64-linux-gnu/bits/pthreadtypes.h, lines 108-112:	N296 -{union __anon_type_pthread_barrier_t {   char __size[32];   long int __align; } ;}-> N297
/usr/include/x86_64-linux-gnu/bits/pthreadtypes.h, lines 108-112:	N297 -{typedef union __anon_type_pthread_barrier_t pthread_barrier_t;}-> N298
/usr/include/x86_64-linux-gnu/bits/pthreadtypes.h, lines 114-118:	N298 -{union __anon_type_pthread_barrierattr_t {   char __size[4];   int __align; } ;}-> N299
/usr/include/x86_64-linux-gnu/bits/pthreadtypes.h, lines 114-118:	N299 -{typedef union __anon_type_pthread_mutexattr_t pthread_barrierattr_t;}-> N300
/usr/include/stdlib.h, line 402:	N300 -{long int random();}-> N301
/usr/include/stdlib.h, line 405:	N301 -{void srandom(unsigned int __seed);}-> N302
/usr/include/stdlib.h, lines 411-412:	N302 -{char *initstate(unsigned int __seed, char *__statebuf, size_t __statelen);}-> N303
/usr/include/stdlib.h, line 416:	N303 -{char *setstate(char *__statebuf);}-> N304
/usr/include/stdlib.h, lines 424-433:	N304 -{struct random_data {   int32_t *fptr;   int32_t *rptr;   int32_t *state;   int rand_type;   int rand_deg;   int rand_sep;   int32_t *end_ptr; } ;}-> N305
/usr/include/stdlib.h, lines 435-436:	N305 -{int random_r(struct random_data *__buf, int32_t *__result);}-> N306
/usr/include/stdlib.h, lines 438-439:	N306 -{int srandom_r(unsigned int __seed, struct random_data *__buf);}-> N307
/usr/include/stdlib.h, lines 441-444:	N307 -{int initstate_r(unsigned int __seed, char *__statebuf, size_t __statelen, struct random_data *__buf);}-> N308
/usr/include/stdlib.h, lines 446-448:	N308 -{int setstate_r(char *__statebuf, struct random_data *__buf);}-> N309
/usr/include/stdlib.h, line 454:	N309 -{int rand();}-> N310
/usr/include/stdlib.h, line 456:	N310 -{void srand(unsigned int __seed);}-> N311
/usr/include/stdlib.h, line 460:	N311 -{int rand_r(unsigned int *__seed);}-> N312
/usr/include/stdlib.h, line 468:	N312 -{double drand48();}-> N313
/usr/include/stdlib.h, line 469:	N313 -{double erand48(unsigned short int __xsubi[3]);}-> N314
/usr/include/stdlib.h, line 472:	N314 -{long int lrand48();}-> N315
/usr/include/stdlib.h, lines 473-474:	N315 -{long int nrand48(unsigned short int __xsubi[3]);}-> N316
/usr/include/stdlib.h, line 477:	N316 -{long int mrand48();}-> N317
/usr/include/stdlib.h, lines 478-479:	N317 -{long int jrand48(unsigned short int __xsubi[3]);}-> N318
/usr/include/stdlib.h, line 482:	N318 -{void srand48(long int __seedval);}-> N319
/usr/include/stdlib.h, lines 483-484:	N319 -{unsigned short int *seed48(unsigned short int __seed16v[3]);}-> N320
/usr/include/stdlib.h, line 485:	N320 -{void lcong48(unsigned short int __param[7]);}-> N321
/usr/include/stdlib.h, lines 491-499:	N321 -{struct drand48_data {   unsigned short int __x[3];   unsigned short int __old_x[3];   unsigned short int __c;   unsigned short int __init;   unsigned long long int __a; } ;}-> N322
/usr/include/stdlib.h, lines 502-503:	N322 -{int drand48_r(struct drand48_data *__buffer, double *__result);}-> N323
/usr/include/stdlib.h, lines 504-506:	N323 -{int erand48_r(unsigned short int __xsubi[3], struct drand48_data *__buffer, double *__result);}-> N324
/usr/include/stdlib.h, lines 509-511:	N324 -{int lrand48_r(struct drand48_data *__buffer, long int *__result);}-> N325
/usr/include/stdlib.h, lines 512-515:	N325 -{int nrand48_r(unsigned short int __xsubi[3], struct drand48_data *__buffer, long int *__result);}-> N326
/usr/include/stdlib.h, lines 518-520:	N326 -{int mrand48_r(struct drand48_data *__buffer, long int *__result);}-> N327
/usr/include/stdlib.h, lines 521-524:	N327 -{int jrand48_r(unsigned short int __xsubi[3], struct drand48_data *__buffer, long int *__result);}-> N328
/usr/include/stdlib.h, lines 527-528:	N328 -{int srand48_r(long int __seedval, struct drand48_data *__buffer);}-> N329
/usr/include/stdlib.h, lines 530-531:	N329 -{int seed48_r(unsigned short int __seed16v[3], struct drand48_data *__buffer);}-> N330
/usr/include/stdlib.h, lines 533-535:	N330 -{int lcong48_r(unsigned short int __param[7], struct drand48_data *__buffer);}-> N331
/usr/include/stdlib.h, lines 540-541:	N331 -{void *malloc(size_t __size);}-> N332
/usr/include/stdlib.h, lines 543-544:	N332 -{void *calloc(size_t __nmemb, size_t __size);}-> N333
/usr/include/stdlib.h, lines 551-552:	N333 -{void *realloc(void *__ptr, size_t __size);}-> N334
/usr/include/stdlib.h, line 555:	N334 -{void free(void *__ptr);}-> N335
/usr/include/stdlib.h, lines 563-566:	N335 -{void *reallocarray(void *__ptr, size_t __nmemb, size_t __size);}-> N336
/usr/include/alloca.h, line 32:	N336 -{void *alloca(size_t __size);}-> N337
/usr/include/stdlib.h, lines 580-581:	N337 -{void *valloc(size_t __size);}-> N338
/usr/include/stdlib.h, lines 586-587:	N338 -{int posix_memalign(void **__memptr, size_t __alignment, size_t __size);}-> N339
/usr/include/stdlib.h, lines 592-594:	N339 -{void *aligned_alloc(size_t __alignment, size_t __size);}-> N340
/usr/include/stdlib.h, line 598:	N340 -{void abort();}-> N341
/usr/include/stdlib.h, line 602:	N341 -{int atexit(void (*__func)());}-> N342
/usr/include/stdlib.h, line 610:	N342 -{int at_quick_exit(void (*__func)());}-> N343
/usr/include/stdlib.h, lines 617-618:	N343 -{int on_exit(void (*__func)(int __status, void *__arg), void *__arg);}-> N344
/usr/include/stdlib.h, line 624:	N344 -{void exit(int __status);}-> N345
/usr/include/stdlib.h, line 630:	N345 -{void quick_exit(int __status);}-> N346
/usr/include/stdlib.h, line 636:	N346 -{void _Exit(int __status);}-> N347
/usr/include/stdlib.h, line 641:	N347 -{char *getenv(const char *__name);}-> N348
/usr/include/stdlib.h, line 654:	N348 -{int putenv(char *__string);}-> N349
/usr/include/stdlib.h, lines 660-661:	N349 -{int setenv(const char *__name, const char *__value, int __replace);}-> N350
/usr/include/stdlib.h, line 664:	N350 -{int unsetenv(const char *__name);}-> N351
/usr/include/stdlib.h, line 671:	N351 -{int clearenv();}-> N352
/usr/include/stdlib.h, line 682:	N352 -{char *mktemp(char *__template);}-> N353
/usr/include/stdlib.h, line 695:	N353 -{int mkstemp(char *__template);}-> N354
/usr/include/stdlib.h, line 717:	N354 -{int mkstemps(char *__template, int __suffixlen);}-> N355
/usr/include/stdlib.h, line 738:	N355 -{char *mkdtemp(char *__template);}-> N356
/usr/include/stdlib.h, line 791:	N356 -{int system(const char *__command);}-> N357
/usr/include/stdlib.h, lines 808-809:	N357 -{char *realpath(const char *__name, char *__resolved);}-> N358
/usr/include/stdlib.h, line 816:	N358 -{typedef int (*__compar_fn_t)(const void *, const void *);}-> N359
/usr/include/stdlib.h, lines 828-830:	N359 -{void *bsearch(const void *__key, const void *__base, size_t __nmemb, size_t __size, __compar_fn_t __compar);}-> N360
/usr/include/stdlib.h, lines 838-839:	N360 -{void qsort(void *__base, size_t __nmemb, size_t __size, __compar_fn_t __compar);}-> N361
/usr/include/stdlib.h, line 848:	N361 -{int abs(int __x);}-> N362
/usr/include/stdlib.h, line 849:	N362 -{long int labs(long int __x);}-> N363
/usr/include/stdlib.h, lines 852-853:	N363 -{long long int llabs(long long int __x);}-> N364
/usr/include/stdlib.h, lines 860-861:	N364 -{div_t div(int __numer, int __denom);}-> N365
/usr/include/stdlib.h, lines 862-863:	N365 -{ldiv_t ldiv(long int __numer, long int __denom);}-> N366
/usr/include/stdlib.h, lines 866-868:	N366 -{lldiv_t lldiv(long long int __numer, long long int __denom);}-> N367
/usr/include/stdlib.h, lines 880-881:	N367 -{char *ecvt(double __value, int __ndigit, int *__decpt, int *__sign);}-> N368
/usr/include/stdlib.h, lines 886-887:	N368 -{char *fcvt(double __value, int __ndigit, int *__decpt, int *__sign);}-> N369
/usr/include/stdlib.h, lines 892-893:	N369 -{char *gcvt(double __value, int __ndigit, char *__buf);}-> N370
/usr/include/stdlib.h, lines 898-900:	N370 -{char *qecvt(long double __value, int __ndigit, int *__decpt, int *__sign);}-> N371
/usr/include/stdlib.h, lines 901-903:	N371 -{char *qfcvt(long double __value, int __ndigit, int *__decpt, int *__sign);}-> N372
/usr/include/stdlib.h, lines 904-905:	N372 -{char *qgcvt(long double __value, int __ndigit, char *__buf);}-> N373
/usr/include/stdlib.h, lines 910-912:	N373 -{int ecvt_r(double __value, int __ndigit, int *__decpt, int *__sign, char *__buf, size_t __len);}-> N374
/usr/include/stdlib.h, lines 913-915:	N374 -{int fcvt_r(double __value, int __ndigit, int *__decpt, int *__sign, char *__buf, size_t __len);}-> N375
/usr/include/stdlib.h, lines 917-920:	N375 -{int qecvt_r(long double __value, int __ndigit, int *__decpt, int *__sign, char *__buf, size_t __len);}-> N376
/usr/include/stdlib.h, lines 921-924:	N376 -{int qfcvt_r(long double __value, int __ndigit, int *__decpt, int *__sign, char *__buf, size_t __len);}-> N377
/usr/include/stdlib.h, line 930:	N377 -{int mblen(const char *__s, size_t __n);}-> N378
/usr/include/stdlib.h, lines 933-934:	N378 -{int mbtowc(wchar_t *__pwc, const char *__s, size_t __n);}-> N379
/usr/include/stdlib.h, line 937:	N379 -{int wctomb(char *__s, wchar_t __wchar);}-> N380
/usr/include/stdlib.h, lines 941-943:	N380 -{size_t mbstowcs(wchar_t *__pwcs, const char *__s, size_t __n);}-> N381
/usr/include/stdlib.h, lines 945-949:	N381 -{size_t wcstombs(char *__s, const wchar_t *__pwcs, size_t __n);}-> N382
/usr/include/stdlib.h, line 956:	N382 -{int rpmatch(const char *__response);}-> N383
/usr/include/stdlib.h, lines 967-970:	N383 -{int getsubopt(char **__optionp, char * const *__tokens, char **__valuep);}-> N384
/usr/include/stdlib.h, lines 1013-1014:	N384 -{int getloadavg(double __loadavg[], int __nelem);}-> N385
lines 6-23:	N385 -{int addition(int m, int n);}-> N386
lines 26-30:	N386 -{void assume(int cond);}-> N387
lines 32-53:	N387 -{int main();}-> N388
none:	N388 -{Function start dummy edge}-> N56
line 33:	N56 -{int iVar1;}-> N57
line 34:	N57 -{int local_18;}-> N58
	local_18 == 1;
line 35:	N58 -{int result;}-> N59
	result == 0;
line 36:	N59 -{int n;}-> N60
line 37:	N60 -{int m;}-> N61
line 39:	N61 -{[!(result < 0)]}-> N65
	result == 0;
	result == 0;
line 39:	N65 -{[!(1073741823 < result)]}-> N64
	result == 0;
	result == 0;
line 41:	N64 -{[!(local_18 < 0)]}-> N70
	local_18 == 1;
	local_18 == 1;
line 41:	N70 -{[!(1073741823 < local_18)]}-> N69
	local_18 == 1;
	local_18 == 1;
line 44:	N69 -{addition(result, local_18)}-> N31
none:	N31 -{Function start dummy edge}-> N32
	m == 0;
	n == 1;
line 7:	N32 -{int iVar1;}-> N33
	m == 0;
	n == 1;
line 8:	N33 -{int n_local;}-> N34
line 9:	N34 -{int m_local;}-> N35
line 11:	N35 -{iVar1 = m;}-> N36
	iVar1 == 0;
line 12:	N36 -{[n != 0]}-> N38
	n == 1;
	n == 1;
line 13:	N38 -{[!(n < 1)]}-> N41
	n == 1;
	n == 1;
line 19:	N41 -{addition(m + 1, n + -1)}-> N31
none:	N31 -{Function start dummy edge}-> N32
	m == 1;
	n == 0;
line 7:	N32 -{int iVar1;}-> N33
	iVar1 == 0;
	m == 1;
	n == 0;
line 8:	N33 -{int n_local;}-> N34
line 9:	N34 -{int m_local;}-> N35
line 11:	N35 -{iVar1 = m;}-> N36
	iVar1 == 1;
line 12:	N36 -{[!(n != 0)]}-> N37
	n == 0;
	n == 0;
line 22:	N37 -{return iVar1;}-> N30
	iVar1 = 1
line 19:	N30 -{Return edge from addition to addition: iVar1 = addition(m + 1, n + -1);}-> N46
none:	N46 -{}-> N37
line 22:	N37 -{return iVar1;}-> N30
	iVar1 = 1
line 44:	N30 -{Return edge from addition to main: iVar1 = addition(result, local_18);}-> N72
line 45:	N72 -{[!(iVar1 == (result - local_18))]}-> N75
	iVar1 == 1;
	iVar1 == 1;
result - local_18 == -1
line 48:	N75 -{iVar1 = 1048576;}-> N77
	iVar1 == 1048576;
line 49:	N77 -{int __CPAchecker_TMP_2;}-> N78
line 49:	N78 -{}-> N80
line 49:	N80 -{__CPAchecker_TMP_2 = 0;}-> N82
line 49:	N82 -{4UL;}-> N83
line 49:	N83 -{}-> N86
line 49:	N86 -{__assert_fail("0 && \"Assertion failed: iVar1 should not equal result - local_18\"", "/home/zyl/biVerify/CPA_DATA2/C/F/llmfix/realOutput/iterationTry/Addition02_process_dc_iter1.c", 49, "__PRETTY_FUNCTION__");}-> N390
